9
0 265 77 296 209 272 306 22 37 
265 0 236 173 455 255 502 259 302 
77 236 0 228 280 195 383 93 104 
296 173 228 0 505 108 591 304 329 
209 455 280 505 0 470 145 204 176 
272 255 195 108 470 0 578 287 297 
306 502 383 591 145 578 0 292 284 
22 259 93 304 204 287 292 0 47 
37 302 104 329 176 297 284 47 0 
